10
1 0 37
2 0 16
2 1 2
3 0 3
3 1 6
3 2 39
4 0 24
4 1 28
4 3 11
5 0 1
5 1 13
5 2 14
5 3 26
5 4 3
6 1 24
6 2 10
6 3 1
6 4 26
6 5 2
7 0 14
7 2 34
7 3 26
7 4 16
7 5 18
7 6 23
8 0 8
8 1 40
8 2 24
8 4 22
8 6 11
9 1 10
9 3 6
9 4 2
9 6 6
9 7 13
9 8 7
